13_rotated_graphene_generated
1.0
10.74074355201	0.00000000000	0.00000000000
-5.37037177595	9.30175677153	0.00000000000
0.00000000000	0.00000000000	6.42440654437
	C
	76
Cartesian
16.11111068700	9.30175685900	4.81830501600
3.95711255100	15.66611671400	4.81830501600
7.34892606700	7.83305835700	4.81830501600
14.13255119300	10.77045440700	4.81830501600
12.15399360700	12.23915386200	4.81830501600
10.17543602000	13.70785236400	4.81830501600
8.19687748000	15.17654991100	4.81830501600
11.58869361900	7.34349203100	4.81830501600
9.61013412500	8.81219005600	4.81830501600
7.63157653800	10.28088855700	4.81830501600
5.65301942800	11.74958705900	4.81830501600
3.67446184200	13.21828556100	4.81830501600
12.43664360000	14.68698310900	4.81830501600
10.45808792100	16.15568161000	4.81830501600
13.84990119900	8.32262325300	4.81830501600
11.87134361300	9.79132270800	4.81830501600
9.89278411900	11.26002121000	4.81830501600
7.91422843900	12.72871875800	4.81830501600
5.93566989900	14.19741725900	4.81830501600
6.21832180000	10.44407749200	4.81830501600
10.17543792700	7.50668048900	4.81830501600
8.19687938700	8.97537899000	4.81830501600
4.23976373700	11.91277599300	4.81830501600
13.00194740300	13.38147449500	4.81830501600
11.02338790900	14.85017204300	4.81830501600
14.41520404800	7.01711416200	4.81830501600
12.43664550800	8.48581218700	4.81830501600
10.45808792100	9.95451164200	4.81830501600
8.47953033400	11.42320919000	4.81830501600
6.50097274800	12.89190769200	4.81830501600
4.52241420700	14.36060619400	4.81830501600
2.54385781300	15.82930374100	4.81830501600
16.67641258200	7.99624633800	4.81830501600
14.69785404200	9.46494579300	4.81830501600
12.71929550200	10.93364334100	4.81830501600
10.74073791500	12.40234279600	4.81830501600
8.76218128200	13.87103939100	4.81830501600
6.78362178800	15.33973884600	4.81830501600
13.56725047426	12.72871882011	1.60610163200
7.63157746939	8.32262313504	1.60610163200
11.30604007561	13.70784991035	1.60610163200
9.04483110015	14.68698329224	1.60610163200
14.13255230917	7.83305687202	1.60610163200
6.78362234091	15.66611574597	1.60610163200
11.87134262201	8.81218910856	1.60610163200
9.61013572078	9.79132199617	1.60610163200
7.34892521343	10.77045355085	1.60610163200
5.08771645441	11.74958600361	1.60610163200
11.02338863984	16.15568100802	1.60610163200
16.11110788357	9.30175461667	1.60610163200
13.84990201971	10.28088725822	1.60610163200
11.58869244028	11.26001903009	1.60610163200
9.32748346482	12.23915241198	1.60610163200
7.06627284876	13.21828443111	1.60610163200
4.80506616375	14.19741639056	1.60610163200
9.89278611992	7.34349114575	1.60610163200
2.54385647681	15.17654862613	1.60610163200
12.71929467239	13.87103911441	1.60610163200
6.78362341562	9.46494432839	1.60610163200
10.45808498522	14.85017135096	1.60610163200
15.54580712314	7.99624514815	1.60610163200
8.19687922910	15.82930352783	1.60610163200
13.28459836509	8.97537760115	1.60610163200
11.02338971456	9.95450959044	1.60610163200
8.76218095531	10.93364204418	1.60610163200
6.50097105096	11.91277520865	1.60610163200
4.23976343802	12.89190695091	1.60610163200
7.06627474269	7.01711369516	1.60610163200
15.26315661649	10.44407646228	1.60610163200
13.00194703706	11.42320823415	1.60610163200
10.74073920671	12.40234090531	1.60610163200
8.47952859087	13.38147292346	1.60610163200
6.21831961518	14.36060630632	1.60610163200
11.30604175310	7.50668010352	1.60610163200
3.95711221967	15.33973711969	1.60610163200
9.04483299408	8.48581255629	1.60610163200
